problems/efpa/efpa-models/noch/O2/lingeling/model-easy4-solution000001.eprime-solution
language ESSENCE' 1.0

letting c_ExplicitR9_Function1D be
        [[1, 4, 2, 1, 4, 3, 3, 4, 3, 1, 2, 2; int(1..12)], [3, 2, 2, 1, 4, 1, 3, 4, 3, 1, 2, 4; int(1..12)],
         [3, 3, 2, 1, 4, 4, 3, 4, 1, 1, 2, 2; int(1..12)], [4, 2, 2, 1, 4, 3, 3, 4, 1, 1, 2, 3; int(1..12)],
         [4, 3, 2, 1, 4, 2, 3, 4, 3, 1, 2, 1; int(1..12)]; int(1..5)]
